100 5
25 200
10
7
13
19
26
3
5
9
16
16
12
19
23
20
8
19
2
12
17
9
11
18
29
3
6
17
16
16
9
21
27
23
11
14
8
5
8
16
31
9
5
5
7
18
16
1
27
36
30
13
10
9
14
18
2
6
7
18
28
3
13
19
10
9
20
25
25
36
6
5
15
25
9
8
18
13
14
3
23
6
26
16
11
7
41
35
26
9
15
3
1
2
22
27
20
11
12
10
9
17
35 35 0 230 0 0
41 49 0 204 10 3
35 17 0 202 10 3
55 45 0 197 10 1
55 20 139 169 10 1
15 30 0 199 10 1
25 30 0 208 10 2
20 50 0 198 10 1
10 43 85 115 10 3
55 60 87 117 10 2
30 60 0 194 10 1
20 65 57 87 10 3
50 35 0 205 10 2
30 25 149 179 10 2
15 10 0 187 10 1
30 5 51 81 10 1
10 20 0 190 10 2
5 30 0 189 10 2
20 40 0 204 10 3
15 60 0 187 10 1
45 65 0 188 10 3
45 20 0 201 10 1
45 10 0 193 10 2
55 5 58 88 10 2
65 35 0 190 10 3
65 20 156 186 10 2
45 30 0 208 10 1
35 40 0 215 10 1
41 37 0 213 10 3
64 42 0 190 10 2
40 60 0 194 10 2
31 52 0 202 10 2
35 69 0 186 10 1
53 52 0 195 10 3
65 55 0 183 10 3
63 65 0 178 10 1
2 60 0 178 10 2
20 20 0 198 10 3
5 5 73 103 10 3
60 12 0 186 10 3
40 25 0 208 10 2
42 7 0 191 10 2
24 12 0 194 10 3
23 3 0 185 10 3
11 14 59 89 10 1
6 38 0 190 10 2
2 48 0 184 10 1
8 56 0 185 10 2
13 52 0 192 10 3
6 68 0 176 10 1
47 47 0 203 10 2
49 58 0 193 10 2
27 43 0 208 10 3
37 31 85 115 10 3
57 29 0 197 10 3
63 23 126 156 10 2
53 12 0 190 10 2
32 12 0 196 10 3
36 26 180 210 10 3
21 24 0 202 10 3
17 34 0 201 10 1
12 24 0 194 10 2
24 58 48 78 10 3
27 69 0 185 10 2
15 77 0 173 10 3
62 77 0 170 10 2
49 73 0 179 10 2
67 5 73 103 10 2
56 39 0 198 10 3
37 47 40 70 10 3
37 56 0 198 10 1
57 68 0 180 10 1
47 16 0 197 10 1
44 17 0 199 10 3
46 13 139 169 10 3
49 11 0 192 10 2
49 42 63 93 10 1
53 43 169 199 10 2
61 52 0 188 10 1
57 48 82 112 10 2
56 37 0 198 10 2
55 54 0 192 10 2
15 47 0 196 10 1
14 37 0 198 10 3
11 31 91 121 10 1
16 22 0 196 10 2
4 18 0 184 10 1
28 18 83 113 10 1
26 52 0 200 10 2
26 35 0 211 10 1
31 67 0 187 10 1
15 19 0 194 10 2
22 22 18 48 10 2
18 24 0 199 10 2
26 27 0 207 10 1
25 24 0 205 10 3
22 27 0 204 10 1
25 21 0 202 10 2
19 21 0 198 10 2
20 26 73 103 10 3
18 18 165 195 10 2
52 47 0 230 5 4
25 18 0 230 5 4
30 21 0 230 5 4
5 66 0 230 5 4
41 40 0 230 5 4
0 0 0 0 1
0 0 1 0 0
0 0 0 0 0
0 0 0 0 0
0 0 0 0 0
0 0 1 0 0
0 0 0 0 0
0 0 0 1 0
1 0 0 0 0
0 0 0 0 0
0 0 0 1 0
0 0 0 0 1
0 0 1 0 0
0 0 0 0 0
0 0 0 0 0
0 1 0 0 0
0 1 0 0 0
0 0 0 0 1
0 0 0 0 0
1 0 0 0 0
0 0 0 0 0
0 0 1 0 0
0 0 1 0 0
1 0 0 0 0
1 0 0 0 0
0 0 0 0 0
0 0 0 0 0
0 0 0 0 1
1 0 0 0 0
1 0 0 0 0
0 0 0 0 1
0 0 0 0 0
1 0 0 0 0
1 0 0 0 0
0 0 0 0 0
0 0 0 1 0
0 1 0 0 0
0 1 0 0 0
0 0 1 0 0
0 0 1 0 0
0 0 1 0 0
0 1 0 0 0
0 1 0 0 0
0 0 0 0 0
0 1 0 0 0
0 0 0 0 0
0 0 0 1 0
0 0 0 1 0
0 0 0 0 0
1 0 0 0 0
1 0 0 0 0
0 0 0 0 1
0 0 0 0 1
1 0 0 0 0
1 0 0 0 0
0 0 1 0 0
0 1 0 0 0
0 0 1 0 0
0 1 0 0 0
0 0 0 0 0
0 1 0 0 0
0 0 0 1 0
0 0 0 1 0
0 0 0 1 0
1 0 0 0 0
1 0 0 0 0
0 0 1 0 0
1 0 0 0 0
0 0 0 0 1
0 0 0 0 0
0 0 0 0 0
0 0 0 0 0
0 0 1 0 0
0 0 1 0 0
0 0 1 0 0
0 0 0 0 0
1 0 0 0 0
0 0 0 0 0
1 0 0 0 0
1 0 0 0 0
1 0 0 0 0
0 0 0 0 0
0 1 0 0 0
0 0 0 0 0
0 1 0 0 0
0 0 0 0 0
0 0 0 0 0
0 0 0 0 1
0 0 0 0 0
0 0 0 0 0
0 1 0 0 0
0 1 0 0 0
0 1 0 0 0
0 0 0 0 0
0 0 1 0 0
0 0 0 0 0
0 1 0 0 0
0 1 0 0 0
0 1 0 0 0
0 1 0 0 0
